36 98 67 82 7 86 6 94 78 46 68 70 
76 
45 47 15 30 63 29 21 90 41 26 84 
69 44 92 12 39 22 8 18 10 66 54 91 80 25 100 
59 14 27 23 88 42 31 19 64 38 87 50 20 56 55 96 89 93 
95 5 28 72 71 16 61 85 99 52 11 9 57 81 43 32 97 13 35 24 77 58 
33 65 83 2 75 62 51 53 79 40 73 49 3 37 34 1 4 60 74 17 48 

